words_hard_train/3989.qaiger
aag 86 21 0 1 65
2
4
10
16
18
26
36
38
52
64
66
80
92
94
108
120
122
136
146
148
164
172
6 2 5
8 3 4
12 9 10
14 7 13
20 17 19
22 16 18
24 21 23
28 24 27
30 15 29
32 25 26
34 31 33
40 37 39
42 36 38
44 41 43
46 23 45
48 22 44
50 47 49
54 50 53
56 35 55
58 51 52
60 57 59
62 49 43
68 65 67
70 64 66
72 69 71
74 62 73
76 63 72
78 75 77
82 78 81
84 61 83
86 79 80
88 85 87
90 77 71
96 93 95
98 92 94
100 97 99
102 90 101
104 91 100
106 103 105
110 106 109
112 89 111
114 107 108
116 113 115
118 105 99
124 121 123
126 120 122
128 125 127
130 118 129
132 119 128
134 131 133
138 134 137
140 117 139
142 135 136
144 141 143
150 146 148
152 147 149
154 151 153
156 133 127
158 155 157
160 154 156
162 159 161
166 162 164
168 145 167
170 163 165
172 169 171
i0 1 x1[0]
i1 2 y1[1]
i2 1 x1[1]
i3 2 y1[2]
i4 2 y2[0]
i5 1 x1[2]
i6 2 y1[3]
i7 2 y2[1]
i8 1 x1[3]
i9 2 y1[4]
i10 2 y2[2]
i11 1 x1[4]
i12 2 y1[5]
i13 2 y2[3]
i14 1 x1[5]
i15 2 y1[6]
i16 2 y2[4]
i17 1 x1[6]
i18 2 y1[7]
i19 2 y2[5]
i20 1 x1[7]
o0 bv[0]
c
simplified
  <
    1 x1
    add
      or
        2 y1
        1
      << 2
        2 y2
