words_hard_train/3989.qaiger.qdimacs
p cnf 86 196
a 1 68 5 40 13 82 54 26 0
e 2 3 4 6 7 8 9 10 11 12 14 15 16 17 18 19 20 21 22 23 24 25 27 28 29 30 31 32 33 34 35 36 37 38 39 41 42 43 44 45 46 47 48 49 50 51 52 53 55 56 57 58 59 60 61 62 63 64 65 66 67 69 70 71 72 73 74 75 76 77 78 79 80 81 83 84 85 86 0
-1 2 3 0
1 -3 0
-2 -3 0
1 -2 4 0
-1 -4 0
2 -4 0
4 -5 6 0
-4 -6 0
5 -6 0
3 6 7 0
-3 -7 0
-6 -7 0
8 9 10 0
-8 -10 0
-9 -10 0
-8 -9 11 0
8 -11 0
9 -11 0
10 11 12 0
-10 -12 0
-11 -12 0
-12 13 14 0
12 -14 0
-13 -14 0
7 14 15 0
-7 -15 0
-14 -15 0
12 -13 16 0
-12 -16 0
13 -16 0
15 16 17 0
-15 -17 0
-16 -17 0
18 19 20 0
-18 -20 0
-19 -20 0
-18 -19 21 0
18 -21 0
19 -21 0
20 21 22 0
-20 -22 0
-21 -22 0
11 22 23 0
-11 -23 0
-22 -23 0
-11 -22 24 0
11 -24 0
22 -24 0
23 24 25 0
-23 -25 0
-24 -25 0
-25 26 27 0
25 -27 0
-26 -27 0
17 27 28 0
-17 -28 0
-27 -28 0
25 -26 29 0
-25 -29 0
26 -29 0
28 29 30 0
-28 -30 0
-29 -30 0
24 21 31 0
-24 -31 0
-21 -31 0
32 33 34 0
-32 -34 0
-33 -34 0
-32 -33 35 0
32 -35 0
33 -35 0
34 35 36 0
-34 -36 0
-35 -36 0
-31 36 37 0
31 -37 0
-36 -37 0
31 -36 38 0
-31 -38 0
36 -38 0
37 38 39 0
-37 -39 0
-38 -39 0
-39 40 41 0
39 -41 0
-40 -41 0
30 41 42 0
-30 -42 0
-41 -42 0
39 -40 43 0
-39 -43 0
40 -43 0
42 43 44 0
-42 -44 0
-43 -44 0
38 35 45 0
-38 -45 0
-35 -45 0
46 47 48 0
-46 -48 0
-47 -48 0
-46 -47 49 0
46 -49 0
47 -49 0
48 49 50 0
-48 -50 0
-49 -50 0
-45 50 51 0
45 -51 0
-50 -51 0
45 -50 52 0
-45 -52 0
50 -52 0
51 52 53 0
-51 -53 0
-52 -53 0
-53 54 55 0
53 -55 0
-54 -55 0
44 55 56 0
-44 -56 0
-55 -56 0
53 -54 57 0
-53 -57 0
54 -57 0
56 57 58 0
-56 -58 0
-57 -58 0
52 49 59 0
-52 -59 0
-49 -59 0
60 61 62 0
-60 -62 0
-61 -62 0
-60 -61 63 0
60 -63 0
61 -63 0
62 63 64 0
-62 -64 0
-63 -64 0
-59 64 65 0
59 -65 0
-64 -65 0
59 -64 66 0
-59 -66 0
64 -66 0
65 66 67 0
-65 -67 0
-66 -67 0
-67 68 69 0
67 -69 0
-68 -69 0
58 69 70 0
-58 -70 0
-69 -70 0
67 -68 71 0
-67 -71 0
68 -71 0
70 71 72 0
-70 -72 0
-71 -72 0
-73 -74 75 0
73 -75 0
74 -75 0
73 74 76 0
-73 -76 0
-74 -76 0
75 76 77 0
-75 -77 0
-76 -77 0
66 63 78 0
-66 -78 0
-63 -78 0
77 78 79 0
-77 -79 0
-78 -79 0
-77 -78 80 0
77 -80 0
78 -80 0
79 80 81 0
-79 -81 0
-80 -81 0
-81 -82 83 0
81 -83 0
82 -83 0
72 83 84 0
-72 -84 0
-83 -84 0
81 82 85 0
-81 -85 0
-82 -85 0
84 85 86 0
-84 -86 0
-85 -86 0
86 0
